NAME          BLANK   
ROWS
 N  OBJROW
 L  R0000000
COLUMNS
    C0000000  OBJROW     -852.         R0000000  368.        
    C0000001  OBJROW     -855.         R0000000  707.        
    C0000002  OBJROW     -450.         R0000000  622.        
    C0000003  OBJROW     -448.         R0000000  28.         
    C0000004  OBJROW     -746.         R0000000  63.         
    C0000005  OBJROW     -865.         R0000000  340.        
    C0000006  OBJROW     -802.         R0000000  791.        
    C0000007  OBJROW     -343.         R0000000  346.        
    C0000008  OBJROW     -644.         R0000000  352.        
    C0000009  OBJROW     -159.         R0000000  914.        
    C0000010  OBJROW     -946.         R0000000  288.        
    C0000011  OBJROW     -89.          R0000000  763.        
    C0000012  OBJROW     -184.         R0000000  342.        
    C0000013  OBJROW     -371.         R0000000  484.        
    C0000014  OBJROW     -294.         R0000000  910.        
    C0000015  OBJROW     -317.         R0000000  548.        
    C0000016  OBJROW     -414.         R0000000  447.        
    C0000017  OBJROW     -75.          R0000000  740.        
    C0000018  OBJROW     -536.         R0000000  5.          
    C0000019  OBJROW     -379.         R0000000  662.        
RHS
    RHS       R0000000  4860.       
BOUNDS
 BV BOUND     C0000000  1.          
 BV BOUND     C0000001  1.          
 BV BOUND     C0000002  1.          
 BV BOUND     C0000003  1.          
 BV BOUND     C0000004  1.          
 BV BOUND     C0000005  1.          
 BV BOUND     C0000006  1.          
 BV BOUND     C0000007  1.          
 BV BOUND     C0000008  1.          
 BV BOUND     C0000009  1.          
 BV BOUND     C0000010  1.          
 BV BOUND     C0000011  1.          
 BV BOUND     C0000012  1.          
 BV BOUND     C0000013  1.          
 BV BOUND     C0000014  1.          
 BV BOUND     C0000015  1.          
 BV BOUND     C0000016  1.          
 BV BOUND     C0000017  1.          
 BV BOUND     C0000018  1.          
 BV BOUND     C0000019  1.          
ENDATA
